50
    94    53    88    95    90    57    66    99    36    72     7    71    48    36    21     6    58    24    87    89    14    56    47    94    79    87    11    87    32    17    51    25    69    85     9    54    98    70    90    12    47    94    65    27    56    17    71    19    82    41
     7     8     3     1     5     4     9     2     9     6     9     3     8     4    10     1     5     9     8    10     6     4    10     9     5     5     1     7     7     9     7     8     4     7     2     5     4    10     2     8     5     2     1     3     5     1     3     3     3     4
   335   407   816   794   835   461   320   368   561   401   608   328   812   684   839   756   426   609   829   428   693   751   516   787   483   635   813   677   588   607   829   315   536   626   404   501   693   459   686   435   755   709   512   284   735   775   341   682   562   436
